NAME: instance_2977
TYPE: TSP
DIMENSION: 20
EDGE_WEIGHT_TYPE: EUC_2D
NODE_COORD_SECTION
0 51.55 86.41
1 94.21 53.76
2 13.53 4.55
3 17.00 93.07
4 58.36 1.93
5 77.81 78.03
6 77.28 71.74
7 61.64 13.44
8 67.61 16.53
9 53.02 24.59
10 64.64 64.17
11 71.00 63.39
12 69.62 39.65
13 95.82 87.52
14 66.40 59.24
15 99.45 88.65
16 4.91 78.25
17 42.67 14.02
18 50.08 57.95
19 34.77 52.46
EOF
